% ============================================================================
% CLP Test Case: 20_0 (variant: 20_0)
% ============================================================================
% Source: JITS2022 Test Battery (Converted)
% Original file: buses_input_20_0.json
% Converted to INTEGER CLP format with SCALE=50
%
% CONVERSION DETAILS:
% - All floating-point values multiplied by SCALE and rounded to integers
% - Travel times (T) calculated using JITS2022 algorithm:
%   T = distance / speed (constrained by model speed limits)
%   Rest times added when previous stop has rest flag
% - Example: 42.5 minutes -> 2125 (integer)
%           1.3 kWh -> 65 (integer)
%
% IMPORTANT: To interpret results, divide integer values by SCALE:
%   - Time: integer_value / 50 = minutes
%   - Energy (D): integer_value / 50 = kWh
% ============================================================================

% --- Problem Dimensions ---
num_buses = 4;
num_stations = 40;

% --- Energy Parameters (CLP Model) ---
% Values are INTEGERS scaled by 50 from original values
Cmax = 5000;  % Maximum battery capacity (original: 100.0 kWh)
Cmin = 1000;   % Minimum reserve (original: 20.0 kWh)
alpha = 500;  % Fast charging rate (original: 10.0 kWh/min)

% --- Time and Schedule Parameters ---
% Values are INTEGERS scaled by 50 from original values
mu = 250;      % Maximum delay (original: 5.0 min)
SM = 50;      % Safety margin (original: 1.0 min)
psi = 50;     % Minimum charging time (original: 1.0 min)
beta = 500;   % Maximum charging time (original: 10.0 min)
M = 5000000;   % Big-M constant (original: 10000.0)

% --- Route Structure ---
max_stops = 568;
num_stops = [566, 568, 378, 356];

% --- Station Sequence (st_bi) ---
% Maps each bus stop to a physical station ID (1-indexed)
st_bi = array2d(1..4, 1..568, [
  1,2,3,4,5,6,7,8,9,10,11,12,13,14,15,16,17,18,19,20,20,21,22,23,24,25,26,27,28,29,30,31,32,33,34,35,36,37,38,39,40,1,1,2,3,4,5,6,7,8,9,10,11,12,13,14,15,16,17,18,19,20,20,21,22,23,24,25,26,27,28,29,30,31,32,33,34,35,36,37,38,39,40,1,1,2,3,4,5,6,7,8,9,10,11,12,13,14,15,16,17,18,19,20,20,21,22,23,24,25,26,27,28,29,30,31,32,33,34,35,36,37,38,39,40,1,1,2,3,4,5,6,7,8,9,10,11,12,13,14,15,16,17,18,19,20,20,21,22,23,24,25,26,27,28,29,30,31,32,33,34,35,36,37,38,39,40,1,1,2,3,4,5,6,7,8,9,10,11,12,13,14,15,16,17,18,19,20,20,21,22,23,24,25,26,27,28,29,30,31,32,33,34,35,36,37,38,39,40,1,1,2,3,4,5,6,7,8,9,10,11,12,13,14,15,16,17,18,19,20,20,21,22,23,24,25,26,27,28,29,30,31,32,33,34,35,36,37,38,39,40,1,1,2,3,4,5,6,7,8,9,10,11,12,13,14,15,16,17,18,19,20,20,21,22,23,24,25,26,27,28,29,30,31,32,33,34,35,36,37,38,39,40,1,1,2,3,4,5,6,7,8,9,10,11,12,13,14,15,16,17,18,19,20,20,21,22,23,24,25,26,27,28,29,30,31,32,33,34,35,36,37,38,39,40,1,1,2,3,4,5,6,7,8,9,10,11,12,13,14,15,16,17,18,19,20,20,21,22,23,24,25,26,27,28,29,30,31,32,33,34,35,36,37,38,39,40,1,1,2,3,4,5,6,7,8,9,10,11,12,13,14,15,16,17,18,19,20,20,21,22,23,24,25,26,27,28,29,30,31,32,33,34,35,36,37,38,39,40,1,1,2,3,4,5,6,7,8,9,10,11,12,13,14,15,16,17,18,19,20,20,21,22,23,24,25,26,27,28,29,30,31,32,33,34,35,36,37,38,39,40,1,1,2,3,4,5,6,7,8,9,10,11,12,13,14,15,16,17,18,19,20,20,21,22,23,24,25,26,27,28,29,30,31,32,33,34,35,36,37,38,39,40,1,1,2,3,4,5,6,7,8,9,10,11,12,13,14,15,16,17,18,19,20,20,21,22,23,24,25,26,27,28,29,30,31,32,33,34,35,36,37,38,39,40,1,1,2,3,4,5,6,7,8,9,10,11,12,13,14,15,16,17,18,19,20,20,20,  % Bus 1
  20,21,22,23,24,25,26,27,28,29,30,31,32,33,34,35,36,37,38,39,40,1,1,2,3,4,5,6,7,8,9,10,11,12,13,14,15,16,17,18,19,20,20,21,22,23,24,25,26,27,28,29,30,31,32,33,34,35,36,37,38,39,40,1,1,2,3,4,5,6,7,8,9,10,11,12,13,14,15,16,17,18,19,20,20,21,22,23,24,25,26,27,28,29,30,31,32,33,34,35,36,37,38,39,40,1,1,2,3,4,5,6,7,8,9,10,11,12,13,14,15,16,17,18,19,20,20,21,22,23,24,25,26,27,28,29,30,31,32,33,34,35,36,37,38,39,40,1,1,2,3,4,5,6,7,8,9,10,11,12,13,14,15,16,17,18,19,20,20,21,22,23,24,25,26,27,28,29,30,31,32,33,34,35,36,37,38,39,40,1,1,2,3,4,5,6,7,8,9,10,11,12,13,14,15,16,17,18,19,20,20,21,22,23,24,25,26,27,28,29,30,31,32,33,34,35,36,37,38,39,40,1,1,2,3,4,5,6,7,8,9,10,11,12,13,14,15,16,17,18,19,20,20,21,22,23,24,25,26,27,28,29,30,31,32,33,34,35,36,37,38,39,40,1,1,2,3,4,5,6,7,8,9,10,11,12,13,14,15,16,17,18,19,20,20,21,22,23,24,25,26,27,28,29,30,31,32,33,34,35,36,37,38,39,40,1,1,2,3,4,5,6,7,8,9,10,11,12,13,14,15,16,17,18,19,20,20,21,22,23,24,25,26,27,28,29,30,31,32,33,34,35,36,37,38,39,40,1,1,2,3,4,5,6,7,8,9,10,11,12,13,14,15,16,17,18,19,20,20,21,22,23,24,25,26,27,28,29,30,31,32,33,34,35,36,37,38,39,40,1,1,2,3,4,5,6,7,8,9,10,11,12,13,14,15,16,17,18,19,20,20,21,22,23,24,25,26,27,28,29,30,31,32,33,34,35,36,37,38,39,40,1,1,2,3,4,5,6,7,8,9,10,11,12,13,14,15,16,17,18,19,20,20,21,22,23,24,25,26,27,28,29,30,31,32,33,34,35,36,37,38,39,40,1,1,2,3,4,5,6,7,8,9,10,11,12,13,14,15,16,17,18,19,20,20,21,22,23,24,25,26,27,28,29,30,31,32,33,34,35,36,37,38,39,40,1,1,2,3,4,5,6,7,8,9,10,11,12,13,14,15,16,17,18,19,20,20,21,22,23,24,25,26,27,28,29,30,31,32,33,34,35,36,37,38,39,40,1,  % Bus 2
  1,2,3,4,5,6,7,8,9,10,11,12,13,14,15,16,17,18,19,20,20,21,22,23,24,25,26,27,28,29,30,31,32,33,34,35,36,37,38,39,40,1,1,2,3,4,5,6,7,8,9,10,11,12,13,14,15,16,17,18,19,20,20,21,22,23,24,25,26,27,28,29,30,31,32,33,34,35,36,37,38,39,40,1,1,2,3,4,5,6,7,8,9,10,11,12,13,14,15,16,17,18,19,20,20,21,22,23,24,25,26,27,28,29,30,31,32,33,34,35,36,37,38,39,40,1,1,2,3,4,5,6,7,8,9,10,11,12,13,14,15,16,17,18,19,20,20,21,22,23,24,25,26,27,28,29,30,31,32,33,34,35,36,37,38,39,40,1,1,2,3,4,5,6,7,8,9,10,11,12,13,14,15,16,17,18,19,20,20,21,22,23,24,25,26,27,28,29,30,31,32,33,34,35,36,37,38,39,40,1,1,2,3,4,5,6,7,8,9,10,11,12,13,14,15,16,17,18,19,20,20,21,22,23,24,25,26,27,28,29,30,31,32,33,34,35,36,37,38,39,40,1,1,2,3,4,5,6,7,8,9,10,11,12,13,14,15,16,17,18,19,20,20,21,22,23,24,25,26,27,28,29,30,31,32,33,34,35,36,37,38,39,40,1,1,2,3,4,5,6,7,8,9,10,11,12,13,14,15,16,17,18,19,20,20,21,22,23,24,25,26,27,28,29,30,31,32,33,34,35,36,37,38,39,40,1,1,2,3,4,5,6,7,8,9,10,11,12,13,14,15,16,17,18,19,20,20,21,22,23,24,25,26,27,28,29,30,31,32,33,34,35,36,37,38,39,40,1,1,1,1,1,1,1,1,1,1,1,1,1,1,1,1,1,1,1,1,1,1,1,1,1,1,1,1,1,1,1,1,1,1,1,1,1,1,1,1,1,1,1,1,1,1,1,1,1,1,1,1,1,1,1,1,1,1,1,1,1,1,1,1,1,1,1,1,1,1,1,1,1,1,1,1,1,1,1,1,1,1,1,1,1,1,1,1,1,1,1,1,1,1,1,1,1,1,1,1,1,1,1,1,1,1,1,1,1,1,1,1,1,1,1,1,1,1,1,1,1,1,1,1,1,1,1,1,1,1,1,1,1,1,1,1,1,1,1,1,1,1,1,1,1,1,1,1,1,1,1,1,1,1,1,1,1,1,1,1,1,1,1,1,1,1,1,1,1,1,1,1,1,1,1,1,1,1,1,1,1,1,1,1,1,1,1,1,1,1,1,  % Bus 3
  1,2,3,4,5,6,7,8,9,10,11,12,13,14,15,16,17,18,19,20,20,21,22,23,24,25,26,27,28,29,30,31,32,33,34,35,36,37,38,39,40,1,1,2,3,4,5,6,7,8,9,10,11,12,13,14,15,16,17,18,19,20,20,21,22,23,24,25,26,27,28,29,30,31,32,33,34,35,36,37,38,39,40,1,1,2,3,4,5,6,7,8,9,10,11,12,13,14,15,16,17,18,19,20,20,21,22,23,24,25,26,27,28,29,30,31,32,33,34,35,36,37,38,39,40,1,1,2,3,4,5,6,7,8,9,10,11,12,13,14,15,16,17,18,19,20,20,21,22,23,24,25,26,27,28,29,30,31,32,33,34,35,36,37,38,39,40,1,1,2,3,4,5,6,7,8,9,10,11,12,13,14,15,16,17,18,19,20,20,21,22,23,24,25,26,27,28,29,30,31,32,33,34,35,36,37,38,39,40,1,1,2,3,4,5,6,7,8,9,10,11,12,13,14,15,16,17,18,19,20,20,21,22,23,24,25,26,27,28,29,30,31,32,33,34,35,36,37,38,39,40,1,1,2,3,4,5,6,7,8,9,10,11,12,13,14,15,16,17,18,19,20,20,21,22,23,24,25,26,27,28,29,30,31,32,33,34,35,36,37,38,39,40,1,1,2,3,4,5,6,7,8,9,10,11,12,13,14,15,16,17,18,19,20,20,21,22,23,24,25,26,27,28,29,30,31,32,33,34,35,36,37,38,39,40,1,1,2,3,4,5,6,7,8,9,10,11,12,13,14,15,16,17,18,19,20,20,20,20,20,20,20,20,20,20,20,20,20,20,20,20,20,20,20,20,20,20,20,20,20,20,20,20,20,20,20,20,20,20,20,20,20,20,20,20,20,20,20,20,20,20,20,20,20,20,20,20,20,20,20,20,20,20,20,20,20,20,20,20,20,20,20,20,20,20,20,20,20,20,20,20,20,20,20,20,20,20,20,20,20,20,20,20,20,20,20,20,20,20,20,20,20,20,20,20,20,20,20,20,20,20,20,20,20,20,20,20,20,20,20,20,20,20,20,20,20,20,20,20,20,20,20,20,20,20,20,20,20,20,20,20,20,20,20,20,20,20,20,20,20,20,20,20,20,20,20,20,20,20,20,20,20,20,20,20,20,20,20,20,20,20,20,20,20,20,20,20,20,20,20,20,20,20,20,20,20,20,20,20,20,20,20,20,20,20,20,20,20,20,20,20,20,20,20,20,20,20,20,20,20,20,20,20,20,20,20,20,20  % Bus 4
]);

% --- Energy Consumption (D) ---
% Energy consumed between stops in kWh (INTEGER values, divide by SCALE for kWh)
% Calculated from distance matrix: Energy = distance_km * 0.25 kWh/km
D = array2d(1..4, 1..568, [
  0,3,3,3,3,4,3,5,3,3,5,4,3,5,3,4,4,4,11,4,0,3,3,11,7,4,4,3,6,2,4,5,3,2,2,3,3,4,2,5,3,4,0,3,3,3,3,4,3,5,3,3,5,4,3,5,3,4,4,4,11,4,0,3,3,11,7,4,4,3,6,2,4,5,3,2,2,3,3,4,2,5,3,4,0,3,3,3,3,4,3,5,3,3,5,4,3,5,3,4,4,4,11,4,0,3,3,11,7,4,4,3,6,2,4,5,3,2,2,3,3,4,2,5,3,4,0,3,3,3,3,4,3,5,3,3,5,4,3,5,3,4,4,4,11,4,0,3,3,11,7,4,4,3,6,2,4,5,3,2,2,3,3,4,2,5,3,4,0,3,3,3,3,4,3,5,3,3,5,4,3,5,3,4,4,4,11,4,0,3,3,11,7,4,4,3,6,2,4,5,3,2,2,3,3,4,2,5,3,4,0,3,3,3,3,4,3,5,3,3,5,4,3,5,3,4,4,4,11,4,0,3,3,11,7,4,4,3,6,2,4,5,3,2,2,3,3,4,2,5,3,4,0,3,3,3,3,4,3,5,3,3,5,4,3,5,3,4,4,4,11,4,0,3,3,11,7,4,4,3,6,2,4,5,3,2,2,3,3,4,2,5,3,4,0,3,3,3,3,4,3,5,3,3,5,4,3,5,3,4,4,4,11,4,0,3,3,11,7,4,4,3,6,2,4,5,3,2,2,3,3,4,2,5,3,4,0,3,3,3,3,4,3,5,3,3,5,4,3,5,3,4,4,4,11,4,0,3,3,11,7,4,4,3,6,2,4,5,3,2,2,3,3,4,2,5,3,4,0,3,3,3,3,4,3,5,3,3,5,4,3,5,3,4,4,4,11,4,0,3,3,11,7,4,4,3,6,2,4,5,3,2,2,3,3,4,2,5,3,4,0,3,3,3,3,4,3,5,3,3,5,4,3,5,3,4,4,4,11,4,0,3,3,11,7,4,4,3,6,2,4,5,3,2,2,3,3,4,2,5,3,4,0,3,3,3,3,4,3,5,3,3,5,4,3,5,3,4,4,4,11,4,0,3,3,11,7,4,4,3,6,2,4,5,3,2,2,3,3,4,2,5,3,4,0,3,3,3,3,4,3,5,3,3,5,4,3,5,3,4,4,4,11,4,0,3,3,11,7,4,4,3,6,2,4,5,3,2,2,3,3,4,2,5,3,4,0,3,3,3,3,4,3,5,3,3,5,4,3,5,3,4,4,4,11,4,0,0,  % Bus 1
  0,3,3,11,7,4,4,3,6,2,4,5,3,2,2,3,3,4,2,5,3,4,0,3,3,3,3,4,3,5,3,3,5,4,3,5,3,4,4,4,11,4,0,3,3,11,7,4,4,3,6,2,4,5,3,2,2,3,3,4,2,5,3,4,0,3,3,3,3,4,3,5,3,3,5,4,3,5,3,4,4,4,11,4,0,3,3,11,7,4,4,3,6,2,4,5,3,2,2,3,3,4,2,5,3,4,0,3,3,3,3,4,3,5,3,3,5,4,3,5,3,4,4,4,11,4,0,3,3,11,7,4,4,3,6,2,4,5,3,2,2,3,3,4,2,5,3,4,0,3,3,3,3,4,3,5,3,3,5,4,3,5,3,4,4,4,11,4,0,3,3,11,7,4,4,3,6,2,4,5,3,2,2,3,3,4,2,5,3,4,0,3,3,3,3,4,3,5,3,3,5,4,3,5,3,4,4,4,11,4,0,3,3,11,7,4,4,3,6,2,4,5,3,2,2,3,3,4,2,5,3,4,0,3,3,3,3,4,3,5,3,3,5,4,3,5,3,4,4,4,11,4,0,3,3,11,7,4,4,3,6,2,4,5,3,2,2,3,3,4,2,5,3,4,0,3,3,3,3,4,3,5,3,3,5,4,3,5,3,4,4,4,11,4,0,3,3,11,7,4,4,3,6,2,4,5,3,2,2,3,3,4,2,5,3,4,0,3,3,3,3,4,3,5,3,3,5,4,3,5,3,4,4,4,11,4,0,3,3,11,7,4,4,3,6,2,4,5,3,2,2,3,3,4,2,5,3,4,0,3,3,3,3,4,3,5,3,3,5,4,3,5,3,4,4,4,11,4,0,3,3,11,7,4,4,3,6,2,4,5,3,2,2,3,3,4,2,5,3,4,0,3,3,3,3,4,3,5,3,3,5,4,3,5,3,4,4,4,11,4,0,3,3,11,7,4,4,3,6,2,4,5,3,2,2,3,3,4,2,5,3,4,0,3,3,3,3,4,3,5,3,3,5,4,3,5,3,4,4,4,11,4,0,3,3,11,7,4,4,3,6,2,4,5,3,2,2,3,3,4,2,5,3,4,0,3,3,3,3,4,3,5,3,3,5,4,3,5,3,4,4,4,11,4,0,3,3,11,7,4,4,3,6,2,4,5,3,2,2,3,3,4,2,5,3,4,0,3,3,3,3,4,3,5,3,3,5,4,3,5,3,4,4,4,11,4,0,3,3,11,7,4,4,3,6,2,4,5,3,2,2,3,3,4,2,5,3,4,  % Bus 2
  0,3,3,3,3,4,3,5,3,3,5,4,3,5,3,4,4,4,11,4,0,3,3,11,7,4,4,3,6,2,4,5,3,2,2,3,3,4,2,5,3,4,0,3,3,3,3,4,3,5,3,3,5,4,3,5,3,4,4,4,11,4,0,3,3,11,7,4,4,3,6,2,4,5,3,2,2,3,3,4,2,5,3,4,0,3,3,3,3,4,3,5,3,3,5,4,3,5,3,4,4,4,11,4,0,3,3,11,7,4,4,3,6,2,4,5,3,2,2,3,3,4,2,5,3,4,0,3,3,3,3,4,3,5,3,3,5,4,3,5,3,4,4,4,11,4,0,3,3,11,7,4,4,3,6,2,4,5,3,2,2,3,3,4,2,5,3,4,0,3,3,3,3,4,3,5,3,3,5,4,3,5,3,4,4,4,11,4,0,3,3,11,7,4,4,3,6,2,4,5,3,2,2,3,3,4,2,5,3,4,0,3,3,3,3,4,3,5,3,3,5,4,3,5,3,4,4,4,11,4,0,3,3,11,7,4,4,3,6,2,4,5,3,2,2,3,3,4,2,5,3,4,0,3,3,3,3,4,3,5,3,3,5,4,3,5,3,4,4,4,11,4,0,3,3,11,7,4,4,3,6,2,4,5,3,2,2,3,3,4,2,5,3,4,0,3,3,3,3,4,3,5,3,3,5,4,3,5,3,4,4,4,11,4,0,3,3,11,7,4,4,3,6,2,4,5,3,2,2,3,3,4,2,5,3,4,0,3,3,3,3,4,3,5,3,3,5,4,3,5,3,4,4,4,11,4,0,3,3,11,7,4,4,3,6,2,4,5,3,2,2,3,3,4,2,5,3,4,0,0,0,0,0,0,0,0,0,0,0,0,0,0,0,0,0,0,0,0,0,0,0,0,0,0,0,0,0,0,0,0,0,0,0,0,0,0,0,0,0,0,0,0,0,0,0,0,0,0,0,0,0,0,0,0,0,0,0,0,0,0,0,0,0,0,0,0,0,0,0,0,0,0,0,0,0,0,0,0,0,0,0,0,0,0,0,0,0,0,0,0,0,0,0,0,0,0,0,0,0,0,0,0,0,0,0,0,0,0,0,0,0,0,0,0,0,0,0,0,0,0,0,0,0,0,0,0,0,0,0,0,0,0,0,0,0,0,0,0,0,0,0,0,0,0,0,0,0,0,0,0,0,0,0,0,0,0,0,0,0,0,0,0,0,0,0,0,0,0,0,0,0,0,0,0,0,0,0,0,0,0,0,0,0,0,0,0,0,0,  % Bus 3
  0,3,3,3,3,4,3,5,3,3,5,4,3,5,3,4,4,4,11,4,0,3,3,11,7,4,4,3,6,2,4,5,3,2,2,3,3,4,2,5,3,4,0,3,3,3,3,4,3,5,3,3,5,4,3,5,3,4,4,4,11,4,0,3,3,11,7,4,4,3,6,2,4,5,3,2,2,3,3,4,2,5,3,4,0,3,3,3,3,4,3,5,3,3,5,4,3,5,3,4,4,4,11,4,0,3,3,11,7,4,4,3,6,2,4,5,3,2,2,3,3,4,2,5,3,4,0,3,3,3,3,4,3,5,3,3,5,4,3,5,3,4,4,4,11,4,0,3,3,11,7,4,4,3,6,2,4,5,3,2,2,3,3,4,2,5,3,4,0,3,3,3,3,4,3,5,3,3,5,4,3,5,3,4,4,4,11,4,0,3,3,11,7,4,4,3,6,2,4,5,3,2,2,3,3,4,2,5,3,4,0,3,3,3,3,4,3,5,3,3,5,4,3,5,3,4,4,4,11,4,0,3,3,11,7,4,4,3,6,2,4,5,3,2,2,3,3,4,2,5,3,4,0,3,3,3,3,4,3,5,3,3,5,4,3,5,3,4,4,4,11,4,0,3,3,11,7,4,4,3,6,2,4,5,3,2,2,3,3,4,2,5,3,4,0,3,3,3,3,4,3,5,3,3,5,4,3,5,3,4,4,4,11,4,0,3,3,11,7,4,4,3,6,2,4,5,3,2,2,3,3,4,2,5,3,4,0,3,3,3,3,4,3,5,3,3,5,4,3,5,3,4,4,4,11,4,0,0,0,0,0,0,0,0,0,0,0,0,0,0,0,0,0,0,0,0,0,0,0,0,0,0,0,0,0,0,0,0,0,0,0,0,0,0,0,0,0,0,0,0,0,0,0,0,0,0,0,0,0,0,0,0,0,0,0,0,0,0,0,0,0,0,0,0,0,0,0,0,0,0,0,0,0,0,0,0,0,0,0,0,0,0,0,0,0,0,0,0,0,0,0,0,0,0,0,0,0,0,0,0,0,0,0,0,0,0,0,0,0,0,0,0,0,0,0,0,0,0,0,0,0,0,0,0,0,0,0,0,0,0,0,0,0,0,0,0,0,0,0,0,0,0,0,0,0,0,0,0,0,0,0,0,0,0,0,0,0,0,0,0,0,0,0,0,0,0,0,0,0,0,0,0,0,0,0,0,0,0,0,0,0,0,0,0,0,0,0,0,0,0,0,0,0,0,0,0,0,0,0,0,0,0,0,0,0,0,0,0  % Bus 4
]);

% --- Travel Time (T) ---
% Time between stops (INTEGER values, divide by SCALE for minutes)
% Calculated using JITS2022 algorithm with speed constraints
T = array2d(1..4, 1..568, [
  0,26,28,24,22,35,21,39,28,23,40,33,27,43,26,28,33,32,88,33,50,20,28,89,53,31,28,25,50,18,32,41,25,19,19,26,26,32,16,36,27,33,50,26,28,24,22,35,21,39,28,23,40,33,27,43,26,28,33,32,88,33,50,20,28,89,53,31,28,25,50,18,32,41,25,19,19,26,26,32,16,36,27,33,50,26,28,24,22,35,21,39,28,23,40,33,27,43,26,28,33,32,88,33,550,20,28,89,53,31,28,25,50,18,32,41,25,19,19,26,26,32,16,36,27,33,50,26,28,24,22,35,21,39,28,23,40,33,27,43,26,28,33,32,88,33,50,20,28,89,53,31,28,25,50,18,32,41,25,19,19,26,26,32,16,36,27,33,50,26,28,24,22,35,21,39,28,23,40,33,27,43,26,28,33,32,88,33,550,20,28,89,53,31,28,25,50,18,32,41,25,19,19,26,26,32,16,36,27,33,50,26,28,24,22,35,21,39,28,23,40,33,27,43,26,28,33,32,88,33,50,20,28,89,53,31,28,25,50,18,32,41,25,19,19,26,26,32,16,36,27,33,50,26,28,24,22,35,21,39,28,23,40,33,27,43,26,28,33,32,88,33,550,20,28,89,53,31,28,25,50,18,32,41,25,19,19,26,26,32,16,36,27,33,50,26,28,24,22,35,21,39,28,23,40,33,27,43,26,28,33,32,88,33,50,20,28,89,53,31,28,25,50,18,32,41,25,19,19,26,26,32,16,36,27,33,50,26,28,24,22,35,21,39,28,23,40,33,27,43,26,28,33,32,88,33,550,20,28,50,50,31,28,25,50,18,32,41,25,19,19,26,26,32,16,36,27,33,1000,26,28,24,22,35,21,39,28,23,40,33,27,43,26,28,33,32,50,33,50,20,28,50,50,31,28,25,50,18,32,41,25,19,19,26,26,32,16,36,27,33,50,26,28,24,22,35,21,39,28,23,40,33,27,43,26,28,33,32,50,33,550,20,28,50,50,31,28,25,50,18,32,41,25,19,19,26,26,32,16,36,27,33,50,26,28,24,22,35,21,39,28,23,40,33,27,43,26,28,33,32,50,33,50,20,28,50,50,31,28,25,50,18,32,41,25,19,19,26,26,32,16,36,27,33,50,26,28,24,22,35,21,39,28,23,40,33,27,43,26,28,33,32,50,33,550,20,28,50,50,31,28,25,50,18,32,41,25,19,19,26,26,32,16,36,27,33,50,26,28,24,22,35,21,39,28,23,40,33,27,43,26,28,33,32,50,33,0,0,  % Bus 1
  0,20,28,50,50,31,28,25,50,18,32,41,25,19,19,26,26,32,16,36,27,33,50,26,28,24,22,35,21,39,28,23,40,33,27,43,26,28,33,32,88,33,50,20,28,89,53,31,28,25,50,18,32,41,25,19,19,26,26,32,16,36,27,33,50,26,28,24,22,35,21,39,28,23,40,33,27,43,26,28,33,32,88,33,50,20,28,89,53,31,28,25,50,18,32,41,25,19,19,26,26,32,16,36,27,33,550,26,28,24,22,35,21,39,28,23,40,33,27,43,26,28,33,32,88,33,50,20,28,89,53,31,28,25,50,18,32,41,25,19,19,26,26,32,16,36,27,33,50,26,28,24,22,35,21,39,28,23,40,33,27,43,26,28,33,32,88,33,50,20,28,89,53,31,28,25,50,18,32,41,25,19,19,26,26,32,16,36,27,33,550,26,28,24,22,35,21,39,28,23,40,33,27,43,26,28,33,32,88,33,50,20,28,89,53,31,28,25,50,18,32,41,25,19,19,26,26,32,16,36,27,33,50,26,28,24,22,35,21,39,28,23,40,33,27,43,26,28,33,32,88,33,50,20,28,89,53,31,28,25,50,18,32,41,25,19,19,26,26,32,16,36,27,33,550,26,28,24,22,35,21,39,28,23,40,33,27,43,26,28,33,32,88,33,50,20,28,89,53,31,28,25,50,18,32,41,25,19,19,26,26,32,16,36,27,33,50,26,28,24,22,35,21,39,28,23,40,33,27,43,26,28,33,32,88,33,50,20,28,89,53,31,28,25,50,18,32,41,25,19,19,26,26,32,16,36,27,33,550,26,28,24,22,35,21,39,28,23,40,33,27,43,26,28,33,32,50,33,1000,20,28,50,50,31,28,25,50,18,32,41,25,19,19,26,26,32,16,36,27,33,50,26,28,24,22,35,21,39,28,23,40,33,27,43,26,28,33,32,50,33,50,20,28,50,50,31,28,25,50,18,32,41,25,19,19,26,26,32,16,36,27,33,550,26,28,24,22,35,21,39,28,23,40,33,27,43,26,28,33,32,50,33,50,20,28,50,50,31,28,25,50,18,32,41,25,19,19,26,26,32,16,36,27,33,50,26,28,24,22,35,21,39,28,23,40,33,27,43,26,28,33,32,50,33,50,20,28,50,50,31,28,25,50,18,32,41,25,19,19,26,26,32,16,36,27,33,550,26,28,24,22,35,21,39,28,23,40,33,27,43,26,28,33,32,50,33,50,20,28,50,50,31,28,25,50,18,32,41,25,19,19,26,26,32,16,36,27,33,  % Bus 2
  0,26,28,24,22,35,21,39,28,23,40,33,27,43,26,28,33,32,88,33,50,20,28,89,53,31,28,25,50,18,32,41,25,19,19,26,26,32,16,36,27,33,50,26,28,24,22,35,21,39,28,23,40,33,27,43,26,28,33,32,88,33,50,20,28,89,53,31,28,25,50,18,32,41,25,19,19,26,26,32,16,36,27,33,50,26,28,24,22,35,21,39,28,23,40,33,27,43,26,28,33,32,88,33,550,20,28,89,53,31,28,25,50,18,32,41,25,19,19,26,26,32,16,36,27,33,50,26,28,24,22,35,21,39,28,23,40,33,27,43,26,28,33,32,88,33,50,20,28,89,53,31,28,25,50,18,32,41,25,19,19,26,26,32,16,36,27,33,50,26,28,24,22,35,21,39,28,23,40,33,27,43,26,28,33,32,88,33,550,20,28,89,53,31,28,25,50,18,32,41,25,19,19,26,26,32,16,36,27,33,50,26,28,24,22,35,21,39,28,23,40,33,27,43,26,28,33,32,88,33,50,20,28,89,53,31,28,25,50,18,32,41,25,19,19,26,26,32,16,36,27,33,50,26,28,24,22,35,21,39,28,23,40,33,27,43,26,28,33,32,88,33,550,20,28,89,53,31,28,25,50,18,32,41,25,19,19,26,26,32,16,36,27,33,50,26,28,24,22,35,21,39,28,23,40,33,27,43,26,28,33,32,88,33,50,20,28,89,53,31,28,25,50,18,32,41,25,19,19,26,26,32,16,36,27,33,50,26,28,24,22,35,21,39,28,23,40,33,27,43,26,28,33,32,88,33,550,20,28,50,50,31,28,25,50,18,32,41,25,19,19,26,26,32,16,36,27,33,0,0,0,0,0,0,0,0,0,0,0,0,0,0,0,0,0,0,0,0,0,0,0,0,0,0,0,0,0,0,0,0,0,0,0,0,0,0,0,0,0,0,0,0,0,0,0,0,0,0,0,0,0,0,0,0,0,0,0,0,0,0,0,0,0,0,0,0,0,0,0,0,0,0,0,0,0,0,0,0,0,0,0,0,0,0,0,0,0,0,0,0,0,0,0,0,0,0,0,0,0,0,0,0,0,0,0,0,0,0,0,0,0,0,0,0,0,0,0,0,0,0,0,0,0,0,0,0,0,0,0,0,0,0,0,0,0,0,0,0,0,0,0,0,0,0,0,0,0,0,0,0,0,0,0,0,0,0,0,0,0,0,0,0,0,0,0,0,0,0,0,0,0,0,0,0,0,0,0,0,0,0,0,0,0,0,0,0,0,0,  % Bus 3
  0,26,28,24,22,35,21,39,28,23,40,33,27,43,26,28,33,32,88,33,50,20,28,89,53,31,28,25,50,18,32,41,25,19,19,26,26,32,16,36,27,33,50,26,28,24,22,35,21,39,28,23,40,33,27,43,26,28,33,32,88,33,50,20,28,89,53,31,28,25,50,18,32,41,25,19,19,26,26,32,16,36,27,33,50,26,28,24,22,35,21,39,28,23,40,33,27,43,26,28,33,32,88,33,550,20,28,89,53,31,28,25,50,18,32,41,25,19,19,26,26,32,16,36,27,33,50,26,28,24,22,35,21,39,28,23,40,33,27,43,26,28,33,32,88,33,50,20,28,89,53,31,28,25,50,18,32,41,25,19,19,26,26,32,16,36,27,33,50,26,28,24,22,35,21,39,28,23,40,33,27,43,26,28,33,32,88,33,550,20,28,89,53,31,28,25,50,18,32,41,25,19,19,26,26,32,16,36,27,33,50,26,28,24,22,35,21,39,28,23,40,33,27,43,26,28,33,32,88,33,50,20,28,89,53,31,28,25,50,18,32,41,25,19,19,26,26,32,16,36,27,33,50,26,28,24,22,35,21,39,28,23,40,33,27,43,26,28,33,32,88,33,550,20,28,89,53,31,28,25,50,18,32,41,25,19,19,26,26,32,16,36,27,33,50,26,28,24,22,35,21,39,28,23,40,33,27,43,26,28,33,32,88,33,50,20,28,89,53,31,28,25,50,18,32,41,25,19,19,26,26,32,16,36,27,33,50,26,28,24,22,35,21,39,28,23,40,33,27,43,26,28,33,32,50,33,0,0,0,0,0,0,0,0,0,0,0,0,0,0,0,0,0,0,0,0,0,0,0,0,0,0,0,0,0,0,0,0,0,0,0,0,0,0,0,0,0,0,0,0,0,0,0,0,0,0,0,0,0,0,0,0,0,0,0,0,0,0,0,0,0,0,0,0,0,0,0,0,0,0,0,0,0,0,0,0,0,0,0,0,0,0,0,0,0,0,0,0,0,0,0,0,0,0,0,0,0,0,0,0,0,0,0,0,0,0,0,0,0,0,0,0,0,0,0,0,0,0,0,0,0,0,0,0,0,0,0,0,0,0,0,0,0,0,0,0,0,0,0,0,0,0,0,0,0,0,0,0,0,0,0,0,0,0,0,0,0,0,0,0,0,0,0,0,0,0,0,0,0,0,0,0,0,0,0,0,0,0,0,0,0,0,0,0,0,0,0,0,0,0,0,0,0,0,0,0,0,0,0,0,0,0,0,0,0,0,0,0  % Bus 4
]);

% --- Original Timetable (tau_bi) ---
% Scheduled arrival times (INTEGER values, divide by SCALE for minutes since 00:00)
tau_bi = array2d(1..4, 1..568, [
  21000,21200,21300,21400,21500,21600,21700,21800,21900,22000,22100,22200,22300,22400,22500,22600,22700,22800,22900,23000,23000,23050,23100,23200,23300,23400,23500,23600,23700,23800,23900,24000,24100,24150,24200,24250,24350,24450,24550,24650,24750,25000,25000,25200,25300,25400,25500,25600,25700,25800,25900,26000,26100,26200,26300,26400,26500,26600,26700,26800,26900,27000,27000,27050,27100,27200,27300,27400,27500,27600,27700,27800,27900,28000,28100,28150,28200,28250,28350,28450,28550,28650,28750,29000,29000,29200,29300,29400,29500,29600,29700,29800,29900,30000,30100,30200,30300,30400,30500,30600,30700,30800,30900,31000,31000,31050,31100,31200,31300,31400,31500,31600,31700,31800,31900,32000,32100,32150,32200,32250,32350,32450,32550,32650,32750,33000,33000,33200,33300,33400,33500,33600,33700,33800,33900,34000,34100,34200,34300,34400,34500,34600,34700,34800,34900,35000,35000,35050,35100,35200,35300,35400,35500,35600,35700,35800,35900,36000,36100,36150,36200,36250,36350,36450,36550,36650,36750,37000,37000,37200,37300,37400,37500,37600,37700,37800,37900,38000,38100,38200,38300,38400,38500,38600,38700,38800,38900,39000,39000,39050,39100,39200,39300,39400,39500,39600,39700,39800,39900,40000,40100,40150,40200,40250,40350,40450,40550,40650,40750,41000,41000,41200,41300,41400,41500,41600,41700,41800,41900,42000,42100,42200,42300,42400,42500,42600,42700,42800,42900,43000,43000,43050,43100,43200,43300,43400,43500,43600,43700,43800,43900,44000,44100,44150,44200,44250,44350,44450,44550,44650,44750,45000,45000,45200,45300,45400,45500,45600,45700,45800,45900,46000,46100,46200,46300,46400,46500,46600,46700,46800,46900,47000,47000,47050,47100,47200,47300,47400,47500,47600,47700,47800,47900,48000,48100,48150,48200,48250,48350,48450,48550,48650,48750,49000,49000,49200,49300,49400,49500,49600,49700,49800,49900,50000,50100,50200,50300,50400,50500,50600,50700,50800,50900,51000,51000,51050,51100,51200,51300,51400,51500,51600,51700,51800,51900,52000,52100,52150,52200,52250,52350,52450,52550,52650,52750,53000,53000,53200,53300,53400,53500,53600,53700,53800,53900,54000,54100,54200,54300,54400,54500,54600,54700,54800,54900,55000,55000,55050,55100,55150,55200,55250,55300,55350,55400,55450,55500,55550,55600,55650,55700,55750,55850,55950,56050,56150,56250,56500,57500,57600,57700,57800,57900,58000,58100,58200,58300,58400,58500,58550,58600,58650,58700,58750,58800,58850,58900,59000,59000,59050,59100,59150,59200,59250,59300,59350,59400,59450,59500,59550,59600,59650,59700,59750,59850,59950,60050,60150,60250,60500,60500,60600,60700,60800,60900,61000,61100,61200,61300,61400,61500,61550,61600,61650,61700,61750,61800,61850,61900,62000,62000,62050,62100,62150,62200,62250,62300,62350,62400,62450,62500,62550,62600,62650,62700,62750,62850,62950,63050,63150,63250,63500,63500,63600,63700,63800,63900,64000,64100,64200,64300,64400,64500,64550,64600,64650,64700,64750,64800,64850,64900,65000,65000,65050,65100,65150,65200,65250,65300,65350,65400,65450,65500,65550,65600,65650,65700,65750,65850,65950,66050,66150,66250,66500,66500,66600,66700,66800,66900,67000,67100,67200,67300,67400,67500,67550,67600,67650,67700,67750,67800,67850,67900,68000,68000,68050,68100,68150,68200,68250,68300,68350,68400,68450,68500,68550,68600,68650,68700,68750,68850,68950,69050,69150,69250,69500,69500,69600,69700,69800,69900,70000,70100,70200,70300,70400,70500,70550,70600,70650,70700,70750,70800,70850,70900,71000,71000,71000,  % Bus 1
  21500,21550,21600,21650,21700,21750,21800,21850,21900,21950,22000,22050,22100,22150,22200,22250,22350,22450,22550,22650,22750,23000,23000,23200,23300,23400,23500,23600,23700,23800,23900,24000,24100,24200,24300,24400,24500,24600,24700,24800,24900,25000,25000,25050,25100,25200,25300,25400,25500,25600,25700,25800,25900,26000,26100,26150,26200,26250,26350,26450,26550,26650,26750,27000,27000,27200,27300,27400,27500,27600,27700,27800,27900,28000,28100,28200,28300,28400,28500,28600,28700,28800,28900,29000,29000,29050,29100,29200,29300,29400,29500,29600,29700,29800,29900,30000,30100,30150,30200,30250,30350,30450,30550,30650,30750,31000,31000,31200,31300,31400,31500,31600,31700,31800,31900,32000,32100,32200,32300,32400,32500,32600,32700,32800,32900,33000,33000,33050,33100,33200,33300,33400,33500,33600,33700,33800,33900,34000,34100,34150,34200,34250,34350,34450,34550,34650,34750,35000,35000,35200,35300,35400,35500,35600,35700,35800,35900,36000,36100,36200,36300,36400,36500,36600,36700,36800,36900,37000,37000,37050,37100,37200,37300,37400,37500,37600,37700,37800,37900,38000,38100,38150,38200,38250,38350,38450,38550,38650,38750,39000,39000,39200,39300,39400,39500,39600,39700,39800,39900,40000,40100,40200,40300,40400,40500,40600,40700,40800,40900,41000,41000,41050,41100,41200,41300,41400,41500,41600,41700,41800,41900,42000,42100,42150,42200,42250,42350,42450,42550,42650,42750,43000,43000,43200,43300,43400,43500,43600,43700,43800,43900,44000,44100,44200,44300,44400,44500,44600,44700,44800,44900,45000,45000,45050,45100,45200,45300,45400,45500,45600,45700,45800,45900,46000,46100,46150,46200,46250,46350,46450,46550,46650,46750,47000,47000,47200,47300,47400,47500,47600,47700,47800,47900,48000,48100,48200,48300,48400,48500,48600,48700,48800,48900,49000,49000,49050,49100,49200,49300,49400,49500,49600,49700,49800,49900,50000,50100,50150,50200,50250,50350,50450,50550,50650,50750,51000,51000,51200,51300,51400,51500,51600,51700,51800,51900,52000,52100,52200,52300,52400,52500,52600,52700,52800,52900,53000,53000,53050,53100,53200,53300,53400,53500,53600,53700,53800,53900,54000,54100,54150,54200,54250,54350,54450,54550,54650,54750,55000,55000,55100,55200,55300,55400,55500,55600,55700,55800,55900,56000,56050,56100,56150,56200,56250,56300,56350,56400,56500,57500,57550,57600,57650,57700,57750,57800,57850,57900,57950,58000,58050,58100,58150,58200,58250,58350,58450,58550,58650,58750,59000,59000,59100,59200,59300,59400,59500,59600,59700,59800,59900,60000,60050,60100,60150,60200,60250,60300,60350,60400,60500,60500,60550,60600,60650,60700,60750,60800,60850,60900,60950,61000,61050,61100,61150,61200,61250,61350,61450,61550,61650,61750,62000,62000,62100,62200,62300,62400,62500,62600,62700,62800,62900,63000,63050,63100,63150,63200,63250,63300,63350,63400,63500,63500,63550,63600,63650,63700,63750,63800,63850,63900,63950,64000,64050,64100,64150,64200,64250,64350,64450,64550,64650,64750,65000,65000,65100,65200,65300,65400,65500,65600,65700,65800,65900,66000,66050,66100,66150,66200,66250,66300,66350,66400,66500,66500,66550,66600,66650,66700,66750,66800,66850,66900,66950,67000,67050,67100,67150,67200,67250,67350,67450,67550,67650,67750,68000,68000,68100,68200,68300,68400,68500,68600,68700,68800,68900,69000,69050,69100,69150,69200,69250,69300,69350,69400,69500,69500,69550,69600,69650,69700,69750,69800,69850,69900,69950,70000,70050,70100,70150,70200,70250,70350,70450,70550,70650,70750,71000,  % Bus 2
  22000,22200,22300,22400,22500,22600,22700,22800,22900,23000,23100,23200,23300,23400,23500,23600,23700,23800,23900,24000,24000,24050,24100,24200,24300,24400,24500,24600,24700,24800,24900,25000,25100,25150,25200,25250,25350,25450,25550,25650,25750,26000,26000,26200,26300,26400,26500,26600,26700,26800,26900,27000,27100,27200,27300,27400,27500,27600,27700,27800,27900,28000,28000,28050,28100,28200,28300,28400,28500,28600,28700,28800,28900,29000,29100,29150,29200,29250,29350,29450,29550,29650,29750,30000,30000,30200,30300,30400,30500,30600,30700,30800,30900,31000,31100,31200,31300,31400,31500,31600,31700,31800,31900,32000,32000,32050,32100,32200,32300,32400,32500,32600,32700,32800,32900,33000,33100,33150,33200,33250,33350,33450,33550,33650,33750,34000,34000,34200,34300,34400,34500,34600,34700,34800,34900,35000,35100,35200,35300,35400,35500,35600,35700,35800,35900,36000,36000,36050,36100,36200,36300,36400,36500,36600,36700,36800,36900,37000,37100,37150,37200,37250,37350,37450,37550,37650,37750,38000,38000,38200,38300,38400,38500,38600,38700,38800,38900,39000,39100,39200,39300,39400,39500,39600,39700,39800,39900,40000,40000,40050,40100,40200,40300,40400,40500,40600,40700,40800,40900,41000,41100,41150,41200,41250,41350,41450,41550,41650,41750,42000,42000,42200,42300,42400,42500,42600,42700,42800,42900,43000,43100,43200,43300,43400,43500,43600,43700,43800,43900,44000,44000,44050,44100,44200,44300,44400,44500,44600,44700,44800,44900,45000,45100,45150,45200,45250,45350,45450,45550,45650,45750,46000,46000,46200,46300,46400,46500,46600,46700,46800,46900,47000,47100,47200,47300,47400,47500,47600,47700,47800,47900,48000,48000,48050,48100,48200,48300,48400,48500,48600,48700,48800,48900,49000,49100,49150,49200,49250,49350,49450,49550,49650,49750,50000,50000,50200,50300,50400,50500,50600,50700,50800,50900,51000,51100,51200,51300,51400,51500,51600,51700,51800,51900,52000,52000,52050,52100,52200,52300,52400,52500,52600,52700,52800,52900,53000,53100,53150,53200,53250,53350,53450,53550,53650,53750,54000,54000,54200,54300,54400,54500,54600,54700,54800,54900,55000,55100,55200,55300,55400,55500,55600,55700,55800,55900,56000,56000,56050,56100,56150,56200,56250,56300,56350,56400,56450,56500,56550,56600,56650,56700,56750,56850,56950,57050,57150,57250,57500,57500,57500,57500,57500,57500,57500,57500,57500,57500,57500,57500,57500,57500,57500,57500,57500,57500,57500,57500,57500,57500,57500,57500,57500,57500,57500,57500,57500,57500,57500,57500,57500,57500,57500,57500,57500,57500,57500,57500,57500,57500,57500,57500,57500,57500,57500,57500,57500,57500,57500,57500,57500,57500,57500,57500,57500,57500,57500,57500,57500,57500,57500,57500,57500,57500,57500,57500,57500,57500,57500,57500,57500,57500,57500,57500,57500,57500,57500,57500,57500,57500,57500,57500,57500,57500,57500,57500,57500,57500,57500,57500,57500,57500,57500,57500,57500,57500,57500,57500,57500,57500,57500,57500,57500,57500,57500,57500,57500,57500,57500,57500,57500,57500,57500,57500,57500,57500,57500,57500,57500,57500,57500,57500,57500,57500,57500,57500,57500,57500,57500,57500,57500,57500,57500,57500,57500,57500,57500,57500,57500,57500,57500,57500,57500,57500,57500,57500,57500,57500,57500,57500,57500,57500,57500,57500,57500,57500,57500,57500,57500,57500,57500,57500,57500,57500,57500,57500,57500,57500,57500,57500,57500,57500,57500,57500,57500,57500,57500,57500,57500,57500,57500,57500,57500,57500,57500,57500,57500,57500,57500,  % Bus 3
  24000,24200,24300,24400,24500,24600,24700,24800,24900,25000,25100,25200,25300,25400,25500,25600,25700,25800,25900,26000,26000,26050,26100,26200,26300,26400,26500,26600,26700,26800,26900,27000,27100,27150,27200,27250,27350,27450,27550,27650,27750,28000,28000,28200,28300,28400,28500,28600,28700,28800,28900,29000,29100,29200,29300,29400,29500,29600,29700,29800,29900,30000,30000,30050,30100,30200,30300,30400,30500,30600,30700,30800,30900,31000,31100,31150,31200,31250,31350,31450,31550,31650,31750,32000,32000,32200,32300,32400,32500,32600,32700,32800,32900,33000,33100,33200,33300,33400,33500,33600,33700,33800,33900,34000,34000,34050,34100,34200,34300,34400,34500,34600,34700,34800,34900,35000,35100,35150,35200,35250,35350,35450,35550,35650,35750,36000,36000,36200,36300,36400,36500,36600,36700,36800,36900,37000,37100,37200,37300,37400,37500,37600,37700,37800,37900,38000,38000,38050,38100,38200,38300,38400,38500,38600,38700,38800,38900,39000,39100,39150,39200,39250,39350,39450,39550,39650,39750,40000,40000,40200,40300,40400,40500,40600,40700,40800,40900,41000,41100,41200,41300,41400,41500,41600,41700,41800,41900,42000,42000,42050,42100,42200,42300,42400,42500,42600,42700,42800,42900,43000,43100,43150,43200,43250,43350,43450,43550,43650,43750,44000,44000,44200,44300,44400,44500,44600,44700,44800,44900,45000,45100,45200,45300,45400,45500,45600,45700,45800,45900,46000,46000,46050,46100,46200,46300,46400,46500,46600,46700,46800,46900,47000,47100,47150,47200,47250,47350,47450,47550,47650,47750,48000,48000,48200,48300,48400,48500,48600,48700,48800,48900,49000,49100,49200,49300,49400,49500,49600,49700,49800,49900,50000,50000,50050,50100,50200,50300,50400,50500,50600,50700,50800,50900,51000,51100,51150,51200,51250,51350,51450,51550,51650,51750,52000,52000,52200,52300,52400,52500,52600,52700,52800,52900,53000,53100,53200,53300,53400,53500,53600,53700,53800,53900,54000,54000,54050,54100,54200,54300,54400,54500,54600,54700,54800,54900,55000,55100,55150,55200,55250,55350,55450,55550,55650,55750,56000,56000,56100,56200,56300,56400,56500,56600,56700,56800,56900,57000,57050,57100,57150,57200,57250,57300,57350,57400,57500,57500,57500,57500,57500,57500,57500,57500,57500,57500,57500,57500,57500,57500,57500,57500,57500,57500,57500,57500,57500,57500,57500,57500,57500,57500,57500,57500,57500,57500,57500,57500,57500,57500,57500,57500,57500,57500,57500,57500,57500,57500,57500,57500,57500,57500,57500,57500,57500,57500,57500,57500,57500,57500,57500,57500,57500,57500,57500,57500,57500,57500,57500,57500,57500,57500,57500,57500,57500,57500,57500,57500,57500,57500,57500,57500,57500,57500,57500,57500,57500,57500,57500,57500,57500,57500,57500,57500,57500,57500,57500,57500,57500,57500,57500,57500,57500,57500,57500,57500,57500,57500,57500,57500,57500,57500,57500,57500,57500,57500,57500,57500,57500,57500,57500,57500,57500,57500,57500,57500,57500,57500,57500,57500,57500,57500,57500,57500,57500,57500,57500,57500,57500,57500,57500,57500,57500,57500,57500,57500,57500,57500,57500,57500,57500,57500,57500,57500,57500,57500,57500,57500,57500,57500,57500,57500,57500,57500,57500,57500,57500,57500,57500,57500,57500,57500,57500,57500,57500,57500,57500,57500,57500,57500,57500,57500,57500,57500,57500,57500,57500,57500,57500,57500,57500,57500,57500,57500,57500,57500,57500,57500,57500,57500,57500,57500,57500,57500,57500,57500,57500,57500,57500,57500,57500,57500,57500,57500,57500,57500,57500,57500,57500  % Bus 4
]);
